(declare-fun e () String)
(declare-fun c () String)
(declare-fun g () String)
(declare-fun b () String)
(declare-fun d () String)
(declare-fun f () String)
(declare-fun h () String)
(assert (= (str.++ d d) (str.++ h c "fb" g e)))
(assert (= (str.++ f "h") h))
(assert (= (str.++ "g" c "e") (str.++ b g "h" e)))

(check-sat)
